p cnf 1522
-25 -473
-26 -476
-27 -479
-28 -482
-29 -485
-30 -488
-31 -491
-32 -494
-33 -497
-34 -500
-35 -503
-36 -506
-37 -509
-38 -512
-39 -515
-40 -518
-41 -521
-42 -524
-43 -527
-44 -530
-45 -533
-46 -536
-47 -539
-48 -542
-49 543
-50 544
-51 545
-52 546
-53 547
-54 548
-55 549
-56 550
-57 551
-58 -26
-58 -27
26 27 58
-59 -28
-59 -29
28 29 59
-60 -30
-60 -31
30 31 60
-61 -32
-61 -33
32 33 61
-62 -34
-62 -35
34 35 62
-63 -36
-63 -37
36 37 63
-64 -38
-64 -39
38 39 64
-65 -40
-65 -41
40 41 65
-66 -42
-66 -43
42 43 66
-67 -44
-67 -45
44 45 67
-68 -46
-68 -47
46 47 68
-69 -48
-69 -49
48 49 69
-70 -50
-70 -51
50 51 70
-71 -52
-71 -53
52 53 71
-72 -54
-72 -55
54 55 72
-73 -56
-73 -57
56 57 73
-74 58
-74 59
-58 -59 74
-75 60
-75 61
-60 -61 75
-76 62
-76 63
-62 -63 76
-77 64
-77 65
-64 -65 77
-78 66
-78 67
-66 -67 78
-79 68
-79 69
-68 -69 79
-80 70
-80 71
-70 -71 80
-81 72
-81 73
-72 -73 81
-82 74
-82 75
-74 -75 82
-83 76
-83 77
-76 -77 83
-84 78
-84 79
-78 -79 84
-85 80
-85 81
-80 -81 85
-86 82
-86 83
-82 -83 86
-87 84
-87 85
-84 -85 87
-88 86
-88 87
-86 -87 88
-89 -25
-89 26
25 -26 89
-90 25
-90 -26
-25 26 90
-91 -89
-91 -90
89 90 91
-92 25
-92 26
-25 -26 92
-93 -25
-93 -91
25 91 93
-94 25
-94 91
-25 -91 94
-95 -93
-95 -94
93 94 95
-96 25
-96 -91
-25 91 96
-97 -92
-97 -96
92 96 97
-98 -26
-98 27
26 -27 98
-99 26
-99 -27
-26 27 99
-100 -98
-100 -99
98 99 100
-101 26
-101 27
-26 -27 101
-102 97
-102 -100
-97 100 102
-103 -97
-103 100
97 -100 103
-104 -102
-104 -103
102 103 104
-105 -97
-105 -100
97 100 105
-106 -101
-106 -105
101 105 106
-107 -27
-107 28
27 -28 107
-108 27
-108 -28
-27 28 108
-109 -107
-109 -108
107 108 109
-110 27
-110 28
-27 -28 110
-111 106
-111 -109
-106 109 111
-112 -106
-112 109
106 -109 112
-113 -111
-113 -112
111 112 113
-114 -106
-114 -109
106 109 114
-115 -110
-115 -114
110 114 115
-116 -28
-116 29
28 -29 116
-117 28
-117 -29
-28 29 117
-118 -116
-118 -117
116 117 118
-119 28
-119 29
-28 -29 119
-120 115
-120 -118
-115 118 120
-121 -115
-121 118
115 -118 121
-122 -120
-122 -121
120 121 122
-123 -115
-123 -118
115 118 123
-124 -119
-124 -123
119 123 124
-125 -29
-125 30
29 -30 125
-126 29
-126 -30
-29 30 126
-127 -125
-127 -126
125 126 127
-128 29
-128 30
-29 -30 128
-129 124
-129 -127
-124 127 129
-130 -124
-130 127
124 -127 130
-131 -129
-131 -130
129 130 131
-132 -124
-132 -127
124 127 132
-133 -128
-133 -132
128 132 133
-134 -30
-134 31
30 -31 134
-135 30
-135 -31
-30 31 135
-136 -134
-136 -135
134 135 136
-137 30
-137 31
-30 -31 137
-138 133
-138 -136
-133 136 138
-139 -133
-139 136
133 -136 139
-140 -138
-140 -139
138 139 140
-141 -133
-141 -136
133 136 141
-142 -137
-142 -141
137 141 142
-143 -31
-143 32
31 -32 143
-144 31
-144 -32
-31 32 144
-145 -143
-145 -144
143 144 145
-146 31
-146 32
-31 -32 146
-147 142
-147 -145
-142 145 147
-148 -142
-148 145
142 -145 148
-149 -147
-149 -148
147 148 149
-150 -142
-150 -145
142 145 150
-151 -146
-151 -150
146 150 151
-152 -32
-152 33
32 -33 152
-153 32
-153 -33
-32 33 153
-154 -152
-154 -153
152 153 154
-155 32
-155 33
-32 -33 155
-156 151
-156 -154
-151 154 156
-157 -151
-157 154
151 -154 157
-158 -156
-158 -157
156 157 158
-159 -151
-159 -154
151 154 159
-160 -155
-160 -159
155 159 160
-161 -33
-161 34
33 -34 161
-162 33
-162 -34
-33 34 162
-163 -161
-163 -162
161 162 163
-164 33
-164 34
-33 -34 164
-165 160
-165 -163
-160 163 165
-166 -160
-166 163
160 -163 166
-167 -165
-167 -166
165 166 167
-168 -160
-168 -163
160 163 168
-169 -164
-169 -168
164 168 169
-170 -34
-170 35
34 -35 170
-171 34
-171 -35
-34 35 171
-172 -170
-172 -171
170 171 172
-173 34
-173 35
-34 -35 173
-174 169
-174 -172
-169 172 174
-175 -169
-175 172
169 -172 175
-176 -174
-176 -175
174 175 176
-177 -169
-177 -172
169 172 177
-178 -173
-178 -177
173 177 178
-179 -35
-179 36
35 -36 179
-180 35
-180 -36
-35 36 180
-181 -179
-181 -180
179 180 181
-182 35
-182 36
-35 -36 182
-183 178
-183 -181
-178 181 183
-184 -178
-184 181
178 -181 184
-185 -183
-185 -184
183 184 185
-186 -178
-186 -181
178 181 186
-187 -182
-187 -186
182 186 187
-188 -36
-188 37
36 -37 188
-189 36
-189 -37
-36 37 189
-190 -188
-190 -189
188 189 190
-191 36
-191 37
-36 -37 191
-192 187
-192 -190
-187 190 192
-193 -187
-193 190
187 -190 193
-194 -192
-194 -193
192 193 194
-195 -187
-195 -190
187 190 195
-196 -191
-196 -195
191 195 196
-197 -37
-197 38
37 -38 197
-198 37
-198 -38
-37 38 198
-199 -197
-199 -198
197 198 199
-200 37
-200 38
-37 -38 200
-201 196
-201 -199
-196 199 201
-202 -196
-202 199
196 -199 202
-203 -201
-203 -202
201 202 203
-204 -196
-204 -199
196 199 204
-205 -200
-205 -204
200 204 205
-206 -38
-206 39
38 -39 206
-207 38
-207 -39
-38 39 207
-208 -206
-208 -207
206 207 208
-209 38
-209 39
-38 -39 209
-210 205
-210 -208
-205 208 210
-211 -205
-211 208
205 -208 211
-212 -210
-212 -211
210 211 212
-213 -205
-213 -208
205 208 213
-214 -209
-214 -213
209 213 214
-215 -39
-215 40
39 -40 215
-216 39
-216 -40
-39 40 216
-217 -215
-217 -216
215 216 217
-218 39
-218 40
-39 -40 218
-219 214
-219 -217
-214 217 219
-220 -214
-220 217
214 -217 220
-221 -219
-221 -220
219 220 221
-222 -214
-222 -217
214 217 222
-223 -218
-223 -222
218 222 223
-224 -40
-224 41
40 -41 224
-225 40
-225 -41
-40 41 225
-226 -224
-226 -225
224 225 226
-227 40
-227 41
-40 -41 227
-228 223
-228 -226
-223 226 228
-229 -223
-229 226
223 -226 229
-230 -228
-230 -229
228 229 230
-231 -223
-231 -226
223 226 231
-232 -227
-232 -231
227 231 232
-233 -41
-233 42
41 -42 233
-234 41
-234 -42
-41 42 234
-235 -233
-235 -234
233 234 235
-236 41
-236 42
-41 -42 236
-237 232
-237 -235
-232 235 237
-238 -232
-238 235
232 -235 238
-239 -237
-239 -238
237 238 239
-240 -232
-240 -235
232 235 240
-241 -236
-241 -240
236 240 241
-242 -42
-242 43
42 -43 242
-243 42
-243 -43
-42 43 243
-244 -242
-244 -243
242 243 244
-245 42
-245 43
-42 -43 245
-246 241
-246 -244
-241 244 246
-247 -241
-247 244
241 -244 247
-248 -246
-248 -247
246 247 248
-249 -241
-249 -244
241 244 249
-250 -245
-250 -249
245 249 250
-251 -43
-251 44
43 -44 251
-252 43
-252 -44
-43 44 252
-253 -251
-253 -252
251 252 253
-254 43
-254 44
-43 -44 254
-255 250
-255 -253
-250 253 255
-256 -250
-256 253
250 -253 256
-257 -255
-257 -256
255 256 257
-258 -250
-258 -253
250 253 258
-259 -254
-259 -258
254 258 259
-260 -44
-260 45
44 -45 260
-261 44
-261 -45
-44 45 261
-262 -260
-262 -261
260 261 262
-263 44
-263 45
-44 -45 263
-264 259
-264 -262
-259 262 264
-265 -259
-265 262
259 -262 265
-266 -264
-266 -265
264 265 266
-267 -259
-267 -262
259 262 267
-268 -263
-268 -267
263 267 268
-269 -45
-269 46
45 -46 269
-270 45
-270 -46
-45 46 270
-271 -269
-271 -270
269 270 271
-272 45
-272 46
-45 -46 272
-273 268
-273 -271
-268 271 273
-274 -268
-274 271
268 -271 274
-275 -273
-275 -274
273 274 275
-276 -268
-276 -271
268 271 276
-277 -272
-277 -276
272 276 277
-278 -46
-278 47
46 -47 278
-279 46
-279 -47
-46 47 279
-280 -278
-280 -279
278 279 280
-281 46
-281 47
-46 -47 281
-282 277
-282 -280
-277 280 282
-283 -277
-283 280
277 -280 283
-284 -282
-284 -283
282 283 284
-285 -277
-285 -280
277 280 285
-286 -281
-286 -285
281 285 286
-287 -47
-287 48
47 -48 287
-288 47
-288 -48
-47 48 288
-289 -287
-289 -288
287 288 289
-290 47
-290 48
-47 -48 290
-291 286
-291 -289
-286 289 291
-292 -286
-292 289
286 -289 292
-293 -291
-293 -292
291 292 293
-294 -286
-294 -289
286 289 294
-295 -290
-295 -294
290 294 295
-296 -48
-296 49
48 -49 296
-297 48
-297 -49
-48 49 297
-298 -296
-298 -297
296 297 298
-299 48
-299 49
-48 -49 299
-300 295
-300 -298
-295 298 300
-301 -295
-301 298
295 -298 301
-302 -300
-302 -301
300 301 302
-303 -295
-303 -298
295 298 303
-304 -299
-304 -303
299 303 304
-305 -49
-305 50
49 -50 305
-306 49
-306 -50
-49 50 306
-307 -305
-307 -306
305 306 307
-308 49
-308 50
-49 -50 308
-309 304
-309 -307
-304 307 309
-310 -304
-310 307
304 -307 310
-311 -309
-311 -310
309 310 311
-312 -304
-312 -307
304 307 312
-313 -308
-313 -312
308 312 313
-314 -50
-314 51
50 -51 314
-315 50
-315 -51
-50 51 315
-316 -314
-316 -315
314 315 316
-317 50
-317 51
-50 -51 317
-318 313
-318 -316
-313 316 318
-319 -313
-319 316
313 -316 319
-320 -318
-320 -319
318 319 320
-321 -313
-321 -316
313 316 321
-322 -317
-322 -321
317 321 322
-323 -51
-323 52
51 -52 323
-324 51
-324 -52
-51 52 324
-325 -323
-325 -324
323 324 325
-326 51
-326 52
-51 -52 326
-327 322
-327 -325
-322 325 327
-328 -322
-328 325
322 -325 328
-329 -327
-329 -328
327 328 329
-330 -322
-330 -325
322 325 330
-331 -326
-331 -330
326 330 331
-332 -52
-332 53
52 -53 332
-333 52
-333 -53
-52 53 333
-334 -332
-334 -333
332 333 334
-335 52
-335 53
-52 -53 335
-336 331
-336 -334
-331 334 336
-337 -331
-337 334
331 -334 337
-338 -336
-338 -337
336 337 338
-339 -331
-339 -334
331 334 339
-340 -335
-340 -339
335 339 340
-341 -53
-341 54
53 -54 341
-342 53
-342 -54
-53 54 342
-343 -341
-343 -342
341 342 343
-344 53
-344 54
-53 -54 344
-345 340
-345 -343
-340 343 345
-346 -340
-346 343
340 -343 346
-347 -345
-347 -346
345 346 347
-348 -340
-348 -343
340 343 348
-349 -344
-349 -348
344 348 349
-350 -54
-350 55
54 -55 350
-351 54
-351 -55
-54 55 351
-352 -350
-352 -351
350 351 352
-353 54
-353 55
-54 -55 353
-354 349
-354 -352
-349 352 354
-355 -349
-355 352
349 -352 355
-356 -354
-356 -355
354 355 356
-357 -349
-357 -352
349 352 357
-358 -353
-358 -357
353 357 358
-359 -55
-359 56
55 -56 359
-360 55
-360 -56
-55 56 360
-361 -359
-361 -360
359 360 361
-362 55
-362 56
-55 -56 362
-363 358
-363 -361
-358 361 363
-364 -358
-364 361
358 -361 364
-365 -363
-365 -364
363 364 365
-366 -358
-366 -361
358 361 366
-367 -362
-367 -366
362 366 367
-368 -56
-368 57
56 -57 368
-369 56
-369 -57
-56 57 369
-370 -368
-370 -369
368 369 370
-371 56
-371 57
-56 -57 371
-372 367
-372 -370
-367 370 372
-373 -367
-373 370
367 -370 373
-374 -372
-374 -373
372 373 374
-375 -367
-375 -370
367 370 375
-376 -371
-376 -375
371 375 376
-377 25
-377 -95
-25 95 377
-378 -25
-378 27
25 -27 378
-379 -377
-379 -378
377 378 379
-380 25
-380 -104
-25 104 380
-381 -25
-381 28
25 -28 381
-382 -380
-382 -381
380 381 382
-383 25
-383 -113
-25 113 383
-384 -25
-384 29
25 -29 384
-385 -383
-385 -384
383 384 385
-386 25
-386 -122
-25 122 386
-387 -25
-387 30
25 -30 387
-388 -386
-388 -387
386 387 388
-389 25
-389 -131
-25 131 389
-390 -25
-390 31
25 -31 390
-391 -389
-391 -390
389 390 391
-392 25
-392 -140
-25 140 392
-393 -25
-393 32
25 -32 393
-394 -392
-394 -393
392 393 394
-395 25
-395 -149
-25 149 395
-396 -25
-396 33
25 -33 396
-397 -395
-397 -396
395 396 397
-398 25
-398 -158
-25 158 398
-399 -25
-399 34
25 -34 399
-400 -398
-400 -399
398 399 400
-401 25
-401 -167
-25 167 401
-402 -25
-402 35
25 -35 402
-403 -401
-403 -402
401 402 403
-404 25
-404 -176
-25 176 404
-405 -25
-405 36
25 -36 405
-406 -404
-406 -405
404 405 406
-407 25
-407 -185
-25 185 407
-408 -25
-408 37
25 -37 408
-409 -407
-409 -408
407 408 409
-410 25
-410 -194
-25 194 410
-411 -25
-411 38
25 -38 411
-412 -410
-412 -411
410 411 412
-413 25
-413 -203
-25 203 413
-414 -25
-414 39
25 -39 414
-415 -413
-415 -414
413 414 415
-416 25
-416 -212
-25 212 416
-417 -25
-417 40
25 -40 417
-418 -416
-418 -417
416 417 418
-419 25
-419 -221
-25 221 419
-420 -25
-420 41
25 -41 420
-421 -419
-421 -420
419 420 421
-422 25
-422 -230
-25 230 422
-423 -25
-423 42
25 -42 423
-424 -422
-424 -423
422 423 424
-425 25
-425 -239
-25 239 425
-426 -25
-426 43
25 -43 426
-427 -425
-427 -426
425 426 427
-428 25
-428 -248
-25 248 428
-429 -25
-429 44
25 -44 429
-430 -428
-430 -429
428 429 430
-431 25
-431 -257
-25 257 431
-432 -25
-432 45
25 -45 432
-433 -431
-433 -432
431 432 433
-434 25
-434 -266
-25 266 434
-435 -25
-435 46
25 -46 435
-436 -434
-436 -435
434 435 436
-437 25
-437 -275
-25 275 437
-438 -25
-438 47
25 -47 438
-439 -437
-439 -438
437 438 439
-440 25
-440 -284
-25 284 440
-441 -25
-441 48
25 -48 441
-442 -440
-442 -441
440 441 442
-443 25
-443 -293
-25 293 443
-444 -25
-444 49
25 -49 444
-445 -443
-445 -444
443 444 445
-446 25
-446 -302
-25 302 446
-447 -25
-447 50
25 -50 447
-448 -446
-448 -447
446 447 448
-449 25
-449 -311
-25 311 449
-450 -25
-450 51
25 -51 450
-451 -449
-451 -450
449 450 451
-452 25
-452 -320
-25 320 452
-453 -25
-453 52
25 -52 453
-454 -452
-454 -453
452 453 454
-455 25
-455 -329
-25 329 455
-456 -25
-456 53
25 -53 456
-457 -455
-457 -456
455 456 457
-458 25
-458 -338
-25 338 458
-459 -25
-459 54
25 -54 459
-460 -458
-460 -459
458 459 460
-461 25
-461 -347
-25 347 461
-462 -25
-462 55
25 -55 462
-463 -461
-463 -462
461 462 463
-464 25
-464 -356
-25 356 464
-465 -25
-465 56
25 -56 465
-466 -464
-466 -465
464 465 466
-467 25
-467 -365
-25 365 467
-468 -25
-468 57
25 -57 468
-469 -467
-469 -468
467 468 469
-470 25
-470 -374
-25 374 470
-471 1
-471 88
-1 -88 471
-472 -88
-472 89
88 -89 472
-473 -471
-473 -472
471 472 473
-474 2
-474 88
-2 -88 474
-475 -88
-475 -379
88 379 475
-476 -474
-476 -475
474 475 476
-477 3
-477 88
-3 -88 477
-478 -88
-478 -382
88 382 478
-479 -477
-479 -478
477 478 479
-480 4
-480 88
-4 -88 480
-481 -88
-481 -385
88 385 481
-482 -480
-482 -481
480 481 482
-483 5
-483 88
-5 -88 483
-484 -88
-484 -388
88 388 484
-485 -483
-485 -484
483 484 485
-486 6
-486 88
-6 -88 486
-487 -88
-487 -391
88 391 487
-488 -486
-488 -487
486 487 488
-489 7
-489 88
-7 -88 489
-490 -88
-490 -394
88 394 490
-491 -489
-491 -490
489 490 491
-492 8
-492 88
-8 -88 492
-493 -88
-493 -397
88 397 493
-494 -492
-494 -493
492 493 494
-495 9
-495 88
-9 -88 495
-496 -88
-496 -400
88 400 496
-497 -495
-497 -496
495 496 497
-498 10
-498 88
-10 -88 498
-499 -88
-499 -403
88 403 499
-500 -498
-500 -499
498 499 500
-501 11
-501 88
-11 -88 501
-502 -88
-502 -406
88 406 502
-503 -501
-503 -502
501 502 503
-504 12
-504 88
-12 -88 504
-505 -88
-505 -409
88 409 505
-506 -504
-506 -505
504 505 506
-507 13
-507 88
-13 -88 507
-508 -88
-508 -412
88 412 508
-509 -507
-509 -508
507 508 509
-510 14
-510 88
-14 -88 510
-511 -88
-511 -415
88 415 511
-512 -510
-512 -511
510 511 512
-513 15
-513 88
-15 -88 513
-514 -88
-514 -418
88 418 514
-515 -513
-515 -514
513 514 515
-516 16
-516 88
-16 -88 516
-517 -88
-517 -421
88 421 517
-518 -516
-518 -517
516 517 518
-519 17
-519 88
-17 -88 519
-520 -88
-520 -424
88 424 520
-521 -519
-521 -520
519 520 521
-522 18
-522 88
-18 -88 522
-523 -88
-523 -427
88 427 523
-524 -522
-524 -523
522 523 524
-525 19
-525 88
-19 -88 525
-526 -88
-526 -430
88 430 526
-527 -525
-527 -526
525 526 527
-528 20
-528 88
-20 -88 528
-529 -88
-529 -433
88 433 529
-530 -528
-530 -529
528 529 530
-531 21
-531 88
-21 -88 531
-532 -88
-532 -436
88 436 532
-533 -531
-533 -532
531 532 533
-534 22
-534 88
-22 -88 534
-535 -88
-535 -439
88 439 535
-536 -534
-536 -535
534 535 536
-537 23
-537 88
-23 -88 537
-538 -88
-538 -442
88 442 538
-539 -537
-539 -538
537 538 539
-540 24
-540 88
-24 -88 540
-541 -88
-541 -445
88 445 541
-542 -540
-542 -541
540 541 542
-543 -88
-543 -448
88 448 543
-544 -88
-544 -451
88 451 544
-545 -88
-545 -454
88 454 545
-546 -88
-546 -457
88 457 546
-547 -88
-547 -460
88 460 547
-548 -88
-548 -463
88 463 548
-549 -88
-549 -466
88 466 549
-550 -88
-550 -469
88 469 550
-551 -88
-551 470
88 -470 551
-552 -57
-552 376
57 -376 552
-553 25
-553 -552
-25 552 553
553
